benchmarks_vrp/CMT1/no_cluster/CMT1_1.vrp
NAME: CMT1_1
TYPE: CVRP
COMMENT: 524.61 - Cluster Nr.1
DIMENSION: 10
CAPACITY: 160
EDGE_WEIGHT_TYPE: EUC_2D
NODE_COORD_TYPE: TWOD_COORDS
NODE_COORD_SECTION: 
8 8 52
1 12 42
3 16 57
4 30 40
6 25 55
2 5 64
7 17 63
9 30 48
5 21 47
10 7 38
DEPOT_SECTION: 
4
-1
DEMAND_SECTION: 
7 19
2 11
3 16
5 15
4 0
1 21
6 17
9 15
8 10
10 28
EOF
