benchmarks_vrp/CMT1/no_cluster/CMT1_1.tour
NAME: CMT1_1 solution
TYPE: TOUR
TOUR_SECTION:
4 5 1 10 8 2 7 3 6 9 -1
-1
EOF